c ren 1 -> 1
c ren 2 -> 2
c ren 3 -> 3
c ren 4 -> 4
c ren 5 -> 5
c ren 6 -> 6
c ren 7 -> 7
c ren 8 -> 8
c ren 9 -> 9
c ren 10 -> 10
c ren 11 -> 11
c ren 12 -> 12
c ren 13 -> 13
c ren 14 -> 14
c ren 15 -> 15
c ren 16 -> 16
c ren 17 -> 17
c ren 18 -> 18
c ren 19 -> 19
c ren 20 -> 20
c ren 21 -> 21
c ren 22 -> 22
c ren 23 -> 23
c ren 24 -> 24
c ren 25 -> 25
c ren 26 -> 26
c ren 27 -> 27
c ren 28 -> 28
c ren 29 -> 29
c ren 30 -> 30
c ren 31 -> 31
c ren 32 -> 32
c ren 33 -> 33
c ren 47 -> 34
c ren 53 -> 35
c ren 54 -> 36
c ren 55 -> 37
c ren 58 -> 38
c ren 59 -> 39
c ren 63 -> 40
c ren 75 -> 41
c ren 83 -> 42
c ren 84 -> 43
c ren 85 -> 44
c ren 88 -> 45
c ren 89 -> 46
c ren 90 -> 47
c ren 93 -> 48
c ren 96 -> 49
c ren 99 -> 50
c ren 105 -> 51
c ren 107 -> 52
c ren 109 -> 53
c ren 115 -> 54
c ren 123 -> 55
c ren 129 -> 56
c ren 131 -> 57
c ren 139 -> 58
c ren 141 -> 59
c ren 143 -> 60
c ren 144 -> 61
c ren 145 -> 62
c ren 147 -> 63
c ren 153 -> 64
c ren 162 -> 65
c ren 163 -> 66
c ren 166 -> 67
c ren 167 -> 68
c ren 168 -> 69
c ren 169 -> 70
c ren 232 -> 71
c ren 233 -> 72
c ren 249 -> 73
c ren 254 -> 74
c ren 255 -> 75
c ren 284 -> 76
c ren 285 -> 77
c ren 293 -> 78
c ren 306 -> 79
c ren 307 -> 80
c ren 308 -> 81
p cnf 81 564
e 34 69 0
a 1 2 3 4 5 6 7 8 9 10 11 12 13 14 15 16 17 18 19 20 21 22 23 24 25 26 27 28 29 30 31 32 0
e 33 35 36 37 38 39 40 41 42 43 44 45 46 47 48 49 50 51 52 53 54 55 56 57 58 59 60 61 62 63 64 65 66 67 68 70 71 72 73 74 75 76 77 78 79 80 81 0
10 12 -25 -27 -37 0
11 -27 -38 0
1 13 17 -29 68 0
-10 -11 25 27 36 0
9 10 -26 -37 0
-9 10 -11 -12 -25 26 -27 -28 -39 0
-10 -12 25 27 28 36 0
10 -26 -38 0
-3 -70 0
9 10 12 -27 -37 0
9 -10 11 -12 25 -26 27 -28 -39 0
9 -10 -11 -12 25 -26 -27 -28 -39 0
9 10 11 -12 25 26 27 -28 -39 0
9 -25 -38 0
-9 -11 -12 26 28 36 0
-11 25 26 27 36 0
10 11 -25 -28 -37 0
-1 -11 -17 27 59 72 -73 76 0
10 11 -25 -27 -37 0
-12 28 -38 0
9 10 11 -28 -37 0
-11 27 -38 0
1 17 52 66 0
10 11 -25 -27 -72 0
-6 -7 21 23 35 0
9 10 -11 12 25 26 -27 28 -39 0
-10 26 -38 0
5 6 -7 8 21 22 -23 24 -64 0
9 11 -26 -28 -37 0
-9 25 36 0
6 -22 42 59 -77 0
9 -10 -11 12 25 -26 -27 28 -39 0
-11 -12 25 26 28 36 0
9 11 -26 -27 -37 0
-10 25 26 36 0
9 12 -26 -27 -37 0
-9 -11 26 27 36 0
10 -25 -27 -28 -37 0
-25 -26 -27 -28 -37 0
9 10 11 -27 -37 0
10 -25 -26 -37 0
-9 25 -38 0
-9 -12 26 27 28 36 0
36 -37 0
11 -25 -26 -28 -37 0
12 -28 -38 0
-7 21 22 23 35 0
-9 10 11 -12 -25 26 27 -28 -39 0
9 10 -11 -12 25 26 -27 -28 -39 0
-9 -10 11 -12 -25 -26 27 -28 -39 0
-38 -39 0
9 10 11 12 25 26 27 28 -39 0
-10 -11 -12 25 28 36 0
11 12 -25 -26 -37 0
-41 -47 -81 0
-49 -53 -54 0
-4 -14 15 16 -20 -30 31 32 37 39 44 46 48 49 50 -51 -52 -53 56 -58 -68 0
53 65 0
-1 12 -17 -28 59 72 -73 76 0
15 -30 -31 -41 -81 0
-9 -10 -11 -12 -25 -26 -27 -28 -39 0
6 8 -21 -23 -44 0
7 -23 -45 0
-6 -7 21 23 43 0
5 6 -22 -44 0
-5 6 -7 -8 -21 22 -23 -24 -46 0
-6 -8 21 23 24 43 0
6 -22 -45 0
1 -3 17 19 68 0
5 -6 7 -8 21 -22 23 -24 -46 0
5 -6 -7 -8 21 -22 -23 -24 -46 0
5 6 7 -8 21 22 23 -24 -46 0
5 -21 -45 0
3 -19 -42 -60 -63 0
-7 21 22 23 43 0
6 7 -21 -24 -44 0
5 7 -22 -24 -59 0
6 7 -21 -23 -44 0
-8 24 -45 0
-6 -8 21 23 24 35 0
5 6 7 -24 -44 0
-7 23 -45 0
-5 21 35 0
10 11 -25 -28 -72 0
5 6 -7 8 21 22 -23 24 -46 0
-6 22 -45 0
5 7 -22 -24 -44 0
-5 21 43 0
-7 23 42 59 -77 0
5 -6 -7 8 21 -22 -23 24 -46 0
-7 -8 21 22 24 43 0
-5 -6 -7 23 43 0
5 7 -22 -23 -44 0
-6 21 22 43 0
5 8 -22 -23 -44 0
-5 -7 22 23 43 0
6 -21 -23 -24 -44 0
-21 -22 -23 -24 -44 0
5 6 7 -23 -44 0
6 -21 -22 -44 0
-5 21 -45 0
-5 -8 22 23 24 43 0
43 -44 0
7 -21 -22 -24 -44 0
8 -24 -45 0
4 -14 -15 16 20 -30 -31 32 -33 40 -41 47 55 59 -60 -63 64 70 72 75 -80 0
-5 6 7 -8 -21 22 23 -24 -46 0
5 6 -7 -8 21 22 -23 -24 -46 0
-5 -6 7 -8 -21 -22 23 -24 -46 0
-45 -46 0
5 6 7 8 21 22 23 24 -46 0
-6 -7 -8 21 24 43 0
7 8 -21 -22 -44 0
44 45 -67 0
2 -18 -53 -54 0
-1 -17 -35 57 77 0
4 -20 54 -66 0
1 17 -49 -65 0
1 -4 17 20 -65 78 0
-48 -52 -53 -78 0
-49 -53 -78 0
2 -18 -53 -78 0
2 52 0
-1 -50 0
1 53 0
5 -6 7 8 21 -22 23 24 -64 0
4 -42 -60 -63 -80 0
17 -50 0
4 -51 -52 -53 -78 0
-4 20 54 -66 0
1 17 51 68 0
-1 -4 -17 20 34 70 75 77 0
-1 -17 33 -34 0
51 54 -66 0
-3 19 54 -66 0
-40 42 59 72 -77 0
10 11 12 -25 -72 0
-42 -60 -63 -70 0
-2 18 -67 0
9 -10 11 12 25 -26 27 28 -40 0
15 16 -30 -41 -81 0
55 60 73 0
-20 -42 -60 -63 -80 0
4 -51 -52 -53 -54 0
2 -18 54 -66 0
2 -18 -67 0
-18 52 0
4 -14 -15 16 20 -30 -31 32 37 39 44 46 48 49 50 -51 -52 -53 56 -58 -68 0
1 17 -48 -65 78 0
-20 -51 -52 -53 -54 0
-1 -3 -17 19 -73 76 0
3 -19 54 -66 0
19 -48 0
-4 20 48 49 50 65 0
9 11 12 -26 -72 0
4 14 -15 -16 20 30 -31 -32 37 39 44 46 48 49 50 -51 -52 -53 56 -58 -68 0
1 17 -65 -69 0
4 20 48 49 -51 -52 69 -74 0
20 37 39 46 48 49 50 -61 65 0
4 14 -15 16 20 30 -31 32 37 39 44 46 48 49 50 -51 -52 -53 56 -58 -68 0
4 -14 15 -16 20 -30 31 -32 37 39 44 46 48 49 50 -51 -52 -53 56 -58 -68 0
-4 -43 48 49 50 65 0
4 -20 -67 0
18 -49 0
1 3 17 -19 68 0
1 2 17 -18 -65 78 0
-2 -75 0
-4 20 -67 0
20 -36 46 48 49 50 65 0
49 50 51 65 0
15 -31 -67 0
-9 -10 -11 -12 -25 -26 -27 -28 -40 0
-14 -16 31 32 56 61 0
37 38 -67 0
1 14 -15 16 17 30 -31 -32 37 39 44 46 56 -58 74 78 0
1 -14 -15 16 17 -30 -31 -32 37 39 44 46 56 -58 74 78 0
6 8 -21 -23 -59 0
-30 -31 -32 -58 -62 0
-1 -6 -17 22 59 -73 76 0
-56 62 -67 0
13 -29 -67 0
13 58 0
9 10 -11 12 25 26 -27 28 -40 0
29 -56 0
14 15 -31 -58 -62 0
-36 -67 0
53 -67 0
-14 30 -67 0
7 -23 42 59 -77 0
58 61 0
-13 29 61 0
-13 29 -67 0
-15 30 31 56 61 0
16 -30 -31 -58 -62 0
-15 -16 30 32 56 61 0
14 16 -31 -58 -62 0
14 -30 -67 0
15 -30 -31 -58 -62 0
-15 31 -67 0
-56 -58 -62 0
-17 63 0
-16 30 31 32 56 61 0
-4 -20 48 49 -51 -52 69 -74 0
-42 73 0
14 15 -32 -58 -62 0
55 73 75 80 0
1 14 15 16 17 30 31 -32 37 39 44 46 56 -58 74 78 0
61 -62 0
-5 -6 -7 -8 24 43 0
14 -31 -32 -58 -62 0
15 -30 -32 -58 -62 0
-9 -10 -12 27 28 36 0
-19 51 0
12 -25 -26 -27 -72 0
-5 -6 -7 8 -21 -22 -23 24 -46 0
-4 -14 -15 16 -20 -30 -31 32 37 39 44 46 48 49 50 -51 -52 -53 56 -58 -68 0
-4 14 15 16 -20 30 31 32 37 39 44 46 48 49 50 -51 -52 -53 56 -58 -68 0
1 17 -65 66 0
9 11 -26 -27 -72 0
-17 53 0
37 44 54 62 -66 0
-20 -51 -52 -53 -78 0
-18 60 0
3 -19 -52 -53 -78 0
-4 14 15 -16 -20 30 31 -32 37 39 44 46 48 49 50 -51 -52 -53 56 -58 -68 0
-4 -14 15 -16 -20 -30 31 -32 37 39 44 46 48 49 50 -51 -52 -53 56 -58 -68 0
1 -14 15 16 17 -30 31 -32 37 39 44 46 56 -58 74 78 0
-9 -10 -11 12 -25 -26 -27 28 -39 0
-1 -4 -17 20 -73 76 0
-1 -17 59 -64 -73 76 0
-4 -36 46 48 49 50 65 0
-1 -5 -17 21 59 -73 76 0
65 -66 0
-61 -67 0
-14 -15 -16 32 56 61 0
1 -16 17 68 0
-5 -6 -7 -8 -21 -22 -23 -24 -46 0
-1 -8 -17 24 59 -73 76 0
44 45 54 -66 0
1 17 37 44 62 -65 78 0
-48 -52 -53 -54 0
1 -13 17 29 68 0
9 10 -27 -28 -37 0
1 -15 17 31 68 0
9 -25 -37 0
11 -27 42 59 72 -77 0
9 10 11 12 -37 0
9 -10 11 12 25 -26 27 28 -39 0
10 11 12 -25 -37 0
-12 25 26 27 28 36 0
9 10 -11 -12 25 26 -27 -28 -40 0
-1 -17 33 40 59 64 72 0
1 -3 17 19 49 66 0
1 17 32 68 0
1 15 17 -31 68 0
5 6 7 -24 -59 0
9 -25 42 59 -77 0
9 10 11 12 -72 0
5 6 7 -8 21 22 23 -24 -64 0
5 -21 42 -77 0
-5 6 -7 -8 -21 22 -23 -24 -64 0
11 -25 -26 -27 -37 0
9 -25 -72 0
1 -14 17 30 68 0
-9 -10 26 36 0
9 10 -27 -28 -72 0
-9 10 11 12 -25 26 27 28 -39 0
1 14 17 -30 68 0
-1 3 -17 -19 -73 76 0
12 -25 -26 -27 -37 0
-4 14 -15 -16 -20 30 -31 -32 -33 40 -41 47 55 59 -60 -63 64 70 72 75 -80 0
-1 -14 -15 16 -17 -30 -31 -32 40 -41 47 57 59 64 72 76 0
-9 10 -11 12 -25 26 -27 28 -39 0
1 17 49 51 66 69 0
79 -81 0
9 11 12 -26 -37 0
9 -26 -27 -28 -37 0
-9 -10 -11 27 36 0
-10 25 26 71 0
14 15 -31 -41 -81 0
-9 -10 11 12 -25 -26 27 28 -39 0
29 -47 0
4 -14 15 -16 20 -30 31 -32 -33 40 -41 47 55 59 -60 -63 64 70 72 75 -80 0
4 -20 42 -77 0
-4 39 46 48 49 50 -61 65 0
-9 -10 -11 -12 28 71 0
1 -2 17 18 68 0
5 6 -23 -24 -44 0
5 -21 -44 0
5 6 7 8 -44 0
5 -6 7 8 21 -22 23 24 -46 0
6 7 8 -21 -44 0
-8 21 22 23 24 43 0
5 6 8 -23 -59 0
11 12 -25 -26 -72 0
-30 -31 -32 -41 -81 0
-6 22 42 59 -77 0
11 -25 -26 -28 -72 0
-1 -17 -34 -73 76 0
1 17 -48 68 0
5 -6 -7 8 21 -22 -23 24 -64 0
5 6 8 -23 -44 0
-1 -17 -73 77 0
4 14 -15 -16 20 30 -31 -32 -33 40 -41 47 55 59 -60 -63 64 70 72 75 -80 0
-5 -7 -8 22 24 43 0
7 -21 -22 -23 -44 0
-1 2 -17 -18 -73 76 0
-5 -6 22 43 0
-5 6 7 8 -21 22 23 24 -46 0
8 -21 -22 -23 -44 0
-5 6 -7 8 -21 22 -23 24 -46 0
5 7 8 -22 -44 0
5 -22 -23 -24 -44 0
-5 -6 7 8 -21 -22 23 24 -46 0
-12 28 42 59 72 -77 0
-43 -67 0
5 6 -22 -59 0
1 17 -43 66 74 0
-4 20 55 70 73 75 0
1 17 37 39 44 46 62 67 68 74 0
-3 -48 0
-1 -17 -73 -75 76 0
9 12 -26 -27 -72 0
4 -14 15 16 20 -30 31 32 37 39 44 46 48 49 50 -51 -52 -53 56 -58 -68 0
1 17 51 -65 78 0
-2 -49 0
-3 19 -67 0
13 -29 -81 0
-2 18 55 73 0
14 15 16 -41 -81 0
-1 -17 33 -79 0
3 51 0
-29 41 0
-10 26 42 59 72 -77 0
-1 -16 -17 33 81 0
13 41 0
-11 27 42 59 72 -77 0
-1 -2 -17 18 34 77 0
1 4 17 -20 68 0
1 17 52 68 0
1 2 17 -18 68 0
4 -14 -15 -16 20 -30 -31 -32 37 39 44 46 48 49 50 -51 -52 -53 56 -58 -68 0
1 -4 17 20 48 49 66 69 0
1 17 -49 68 0
1 17 -65 -74 78 0
1 17 68 -69 0
-53 -69 -78 0
19 -70 0
-48 54 -66 0
1 -2 17 18 -65 78 0
1 -2 17 18 66 69 0
1 17 52 -65 78 0
-4 14 -15 -16 -20 30 -31 -32 37 39 44 46 48 49 50 -51 -52 -53 56 -58 -68 0
18 -75 0
4 14 15 -16 20 30 31 -32 37 39 44 46 48 49 50 -51 -52 -53 56 -58 -68 0
4 14 15 16 20 30 31 32 37 39 44 46 48 49 50 -51 -52 -53 56 -58 -68 0
-2 18 54 -66 0
1 -3 17 19 -65 78 0
20 -43 48 49 50 65 0
1 17 66 -78 0
-4 14 -15 16 -20 30 -31 32 37 39 44 46 48 49 50 -51 -52 -53 56 -58 -68 0
1 17 68 -74 0
73 -77 0
14 15 16 -58 -62 0
20 40 55 64 70 72 73 75 -79 0
4 20 34 -57 -60 70 75 -80 0
-14 -15 31 56 61 0
14 -30 -58 -62 0
-13 -56 0
-1 -13 -17 29 33 81 0
-42 -63 -75 0
-14 30 56 61 0
3 -19 -67 0
-1 5 -17 -21 -73 76 0
9 -10 -11 12 25 -26 -27 28 -40 0
14 -31 -32 -41 -81 0
9 10 11 -28 -72 0
3 -19 -60 -63 -76 0
41 79 0
-4 14 15 -16 -20 30 31 -32 -33 40 -41 47 55 59 -60 -63 64 70 72 75 -80 0
1 17 39 46 -61 66 74 0
-8 24 42 59 -77 0
-5 -6 -7 -8 -21 -22 -23 -24 -64 0
-1 8 -17 -24 59 -73 76 0
-13 29 79 0
-4 -14 15 16 -20 -30 31 32 -33 40 -41 47 55 59 -60 -63 64 70 72 75 -80 0
20 55 64 70 -71 73 75 0
37 38 44 54 -66 0
-1 -17 -70 -73 76 0
-29 58 0
16 -32 -67 0
-14 -16 31 32 47 79 0
15 16 -30 -58 -62 0
-1 11 -17 -27 59 72 -73 76 0
-5 -8 22 23 24 35 0
-3 19 42 -77 0
42 -77 80 0
-19 80 0
17 -55 0
-9 -11 26 27 71 0
1 17 68 -78 0
-9 -10 11 12 -25 -26 27 28 -40 0
-54 -67 0
1 3 17 -19 -65 78 0
-1 -17 60 -73 76 0
-1 -17 -57 -73 76 0
20 -35 55 70 73 75 0
10 -26 42 59 72 -77 0
-5 -6 -8 23 24 43 0
1 17 37 38 44 -65 78 0
-4 -14 -15 -16 -20 -30 -31 -32 37 39 44 46 48 49 50 -51 -52 -53 56 -58 -68 0
3 -19 -52 -53 -54 0
-54 65 0
-9 -10 -11 -12 28 36 0
-9 10 -11 12 -25 26 -27 28 -40 0
-1 -7 -17 23 59 -73 76 0
-67 -68 0
1 17 -61 68 0
1 17 -36 46 66 74 0
1 4 17 -20 -65 78 0
-2 18 50 65 0
1 -4 17 20 68 0
13 -29 -62 0
1 17 44 45 -65 78 0
-3 19 55 73 75 0
-1 -17 40 57 64 77 -79 0
-1 4 -17 -20 -73 76 0
-1 -17 -76 77 0
-5 -6 -8 23 24 35 0
3 -19 42 -77 0
-4 -14 -15 -16 -20 -30 -31 -32 -33 40 -41 47 55 59 -60 -63 64 70 72 75 -80 0
5 -22 -23 -24 -59 0
-5 -6 7 8 -21 -22 23 24 -64 0
4 -14 15 16 20 -30 31 32 -33 40 -41 47 55 59 -60 -63 64 70 72 75 -80 0
-5 -6 22 35 0
-4 -14 -15 16 -20 -30 -31 32 -33 40 -41 47 55 59 -60 -63 64 70 72 75 -80 0
5 6 -23 -24 -59 0
5 -21 -59 0
6 7 8 -21 -59 0
-8 21 22 23 24 35 0
-16 30 31 32 47 79 0
5 6 7 8 -59 0
-1 14 15 16 -17 30 31 -32 40 -41 47 57 59 64 72 76 0
-1 6 -17 -22 59 -73 76 0
9 -26 -27 -28 -72 0
-9 -10 -11 27 71 0
-1 -3 -17 19 34 75 77 0
-1 -17 57 64 -71 77 0
-1 -14 15 16 -17 -30 31 -32 40 -41 47 57 59 64 72 76 0
8 -21 -22 -23 -59 0
-5 6 -7 8 -21 22 -23 24 -64 0
-5 -6 -7 8 -21 -22 -23 24 -64 0
-5 -6 -7 23 35 0
-9 -12 26 27 28 71 0
-12 25 26 27 28 71 0
-11 25 26 27 71 0
-5 -7 -8 22 24 35 0
11 -25 -26 -27 -72 0
-5 6 7 8 -21 22 23 24 -64 0
-9 -10 26 71 0
4 -14 -15 -16 20 -30 -31 -32 -33 40 -41 47 55 59 -60 -63 64 70 72 75 -80 0
-1 -12 -17 28 59 72 -73 76 0
-4 40 55 64 70 73 75 -79 0
5 7 8 -22 -59 0
-34 -63 -76 0
4 14 15 16 20 30 31 32 -33 40 -41 47 55 59 -60 -63 64 70 72 75 -80 0
-1 -17 59 72 -73 76 81 0
-4 14 -15 16 -20 30 -31 32 -33 40 -41 47 55 59 -60 -63 64 70 72 75 -80 0
-1 -17 -73 76 80 0
-1 14 -15 16 -17 30 -31 -32 40 -41 47 57 59 64 72 76 0
-14 -15 31 47 79 0
3 80 0
7 -21 -22 -23 -59 0
-9 10 11 12 -25 26 27 28 -40 0
42 -70 -77 0
14 -30 -41 -81 0
-1 -2 -17 18 -73 76 0
-13 -47 0
4 14 15 -16 20 30 31 -32 -33 40 -41 47 55 59 -60 -63 64 70 72 75 -80 0
-14 30 47 79 0
12 -28 42 59 72 -77 0
-1 -17 32 33 81 0
-1 -10 -17 26 59 72 -73 76 0
-4 14 15 16 -20 30 31 32 -33 40 -41 47 55 59 -60 -63 64 70 72 75 -80 0
42 59 72 -77 81 0
-20 -60 -63 -76 -80 0
-15 30 31 47 79 0
-4 -20 34 -57 -60 70 75 -80 0
16 -30 -31 -41 -81 0
-4 -35 55 70 73 75 0
-4 -14 15 -16 -20 -30 31 -32 -33 40 -41 47 55 59 -60 -63 64 70 72 75 -80 0
14 15 -32 -41 -81 0
15 -30 -32 -41 -81 0
-9 -10 -12 27 28 71 0
5 6 -7 -8 21 22 -23 -24 -64 0
-5 -6 7 -8 -21 -22 23 -24 -64 0
7 8 -21 -22 -59 0
8 -24 42 59 -77 0
5 6 7 8 21 22 23 24 -64 0
-5 6 7 -8 -21 22 23 -24 -64 0
-1 7 -17 -23 59 -73 76 0
-6 -7 -8 21 24 35 0
-9 -10 -11 12 -25 -26 -27 28 -40 0
-14 -15 -16 32 47 79 0
-4 55 59 64 70 -71 73 75 0
4 14 -15 16 20 30 -31 32 -33 40 -41 47 55 59 -60 -63 64 70 72 75 -80 0
63 73 0
5 7 -22 -23 -59 0
-9 -11 -12 26 28 71 0
5 8 -22 -23 -59 0
9 10 11 12 25 26 27 28 -40 0
-15 -16 30 32 47 79 0
14 16 -31 -41 -81 0
2 -18 -63 -76 0
71 -72 0
42 59 -64 -77 0
1 63 0
-4 20 42 -77 0
-1 -17 33 -57 0
-1 -55 0
4 -60 -63 -76 -80 0
6 7 -21 -23 -59 0
5 -6 -7 -8 21 -22 -23 -24 -64 0
2 -18 -42 -63 0
6 7 -21 -24 -59 0
-1 -9 -17 25 59 72 -73 76 0
6 -21 -23 -24 -59 0
-9 -10 11 -12 -25 -26 27 -28 -40 0
9 11 -26 -28 -72 0
2 -18 42 -77 0
-5 -6 -7 -8 24 35 0
9 10 11 -12 25 26 27 -28 -40 0
-5 -7 22 23 35 0
9 10 11 -27 -72 0
-1 9 -17 -25 59 -73 76 0
-60 -63 -70 -76 -80 0
10 -25 -26 -72 0
6 -21 -22 -59 0
-9 10 11 -12 -25 26 27 -28 -40 0
42 -75 -77 0
-9 25 71 0
2 60 0
9 -10 -11 -12 25 -26 -27 -28 -40 0
35 -59 0
9 -10 11 -12 25 -26 27 -28 -40 0
-60 -63 -75 -76 0
-7 -8 21 22 24 35 0
-11 -12 25 26 28 71 0
7 -21 -22 -24 -59 0
9 10 12 -27 -72 0
5 -6 7 -8 21 -22 23 -24 -64 0
-25 -26 -27 -28 -72 0
-10 -11 -12 25 28 71 0
-1 -17 -40 59 72 -73 76 0
5 6 7 -23 -59 0
-10 -12 25 27 28 71 0
-9 10 -11 -12 -25 26 -27 -28 -40 0
9 10 -26 -72 0
-10 -11 25 27 71 0
-21 -22 -23 -24 -59 0
-1 10 -17 -26 59 72 -73 76 0
10 -25 -27 -28 -72 0
-6 21 22 35 0
10 12 -25 -27 -72 0
